ilp_joint/output/strip farming_ilp.lp
Maximize
  2.3846950599271422e-04 Z_123_0_0 + 0.0125919303493089 Z_123_0_1
   + 0.6507968994605545 Z_123_0_2 + 0.00141486895472059 Z_123_0_3
   + 0.2349578317294232 Z_123_0_4
Subject To
 constraint1_1230: Z_123_0_0 + Z_123_0_1 + Z_123_0_2 + Z_123_0_3
   + Z_123_0_4 <= 1
 constraint2_1230: Z_123_0_0 <= 1
 constraint2_1231: Z_123_0_1 <= 1
 constraint2_1232: Z_123_0_2 <= 1
 constraint2_1233: Z_123_0_3 <= 1
Bounds
Binaries
 Z_123_0_0 Z_123_0_1 Z_123_0_2 Z_123_0_3 Z_123_0_4
End
