ilp_joint/output/strip farming_ilp.sol
# Solution for model strip farming_srl_ilp
# Objective value = 6.5079689946055452e-01
Z_123_0_0 0
Z_123_0_1 0
Z_123_0_2 1
Z_123_0_3 0
Z_123_0_4 0
